
Gurobi 11.0.3 (linux64) logging started Fri Mar  6 21:40:33 2026

Set parameter LogFile to value "binary/results/rice_2026-03-06_21-40-13/split_1/full_mip_t300/LogFile/log_file_full_mip_1.txt"
Gurobi Optimizer version 11.0.3 build v11.0.3rc0 (linux64 - "CentOS Linux 7 (Core)")

CPU model: Intel(R) Xeon(R) Platinum 8260 CPU @ 2.40GHz, instruction set [SSE2|AVX|AVX2|AVX512]
Thread count: 96 physical cores, 192 logical processors, using up to 4 threads

Optimize a model with 5733 rows, 5731 columns and 57181 nonzeros
Model fingerprint: 0xfe03c1cf
Variable types: 17 continuous, 5714 integer (5714 binary)
Coefficient statistics:
  Matrix range     [6e-05, 1e+04]
  Objective range  [4e-04, 1e+04]
  Bounds range     [1e+00, 5e+02]
  RHS range        [1e+00, 1e+03]

User MIP start produced solution with objective -384799 (0.01s)
User MIP start produced solution with objective -384799 (0.01s)
Loaded user MIP start with objective -384799

Presolve removed 3 rows and 1 columns
Presolve time: 0.04s
Presolved: 5730 rows, 5730 columns, 54319 nonzeros
Variable types: 15 continuous, 5715 integer (5714 binary)
Found heuristic solution: objective -384799.1383

Explored 0 nodes (0 simplex iterations) in 0.13 seconds (0.07 work units)
Thread count was 4 (of 192 available processors)

Solution count 2: -384799 -384799 

Solve interrupted
Best objective -3.847991382567e+05, best bound 1.000000000000e+00, gap 100.0003%

User-callback calls 179, time in user-callback 0.00 sec
